Maximize
  7.57661e-05 Z_591_0_0 + 0.00276659519118802 Z_591_0_1
   + 0.8424579919369511 Z_591_0_2 + 0.00326525637446732 Z_591_0_3
   + 0.0514343903772729 Z_591_0_4
Subject To
 constraint1_5910: Z_591_0_0 + Z_591_0_1 + Z_591_0_2 + Z_591_0_3
   + Z_591_0_4 <= 1
 constraint2_5910: Z_591_0_0 <= 1
 constraint2_5911: Z_591_0_1 <= 1
 constraint2_5912: Z_591_0_2 <= 1
 constraint2_5913: Z_591_0_3 <= 1
Bounds
Binaries
 Z_591_0_0 Z_591_0_1 Z_591_0_2 Z_591_0_3 Z_591_0_4
End
